183
0 138 119 73 146 86 133 181 31 85 
46 57 60 147 153 148 160 18 180 101 
9 131 106 156 140 7 155 62 1 35 
37 169 158 19 52 142 27 38 164 88 
59 16 165 168 110 79 100 71 159 97 
128 129 14 99 94 58 69 12 123 172 
120 143 10 77 161 109 103 72 81 50 
80 41 67 11 40 151 182 116 55 163 
47 78 178 134 74 29 171 61 13 32 
176 124 177 167 28 42 118 104 76 132 
166 170 89 92 91 82 162 54 51 75 
122 84 26 141 121 115 6 70 64 144 
44 107 117 39 130 23 87 96 179 48 
34 149 45 30 21 152 5 150 175 114 
2 173 154 112 33 98 36 15 113 49 
93 65 83 53 90 43 135 4 3 108 
136 68 66 145 8 157 111 63 102 20 
24 105 95 56 126 17 25 127 137 125 
139 174 22 
